c   #vars: 44   #clauses: 186   #literals: 540
c 
p cnf 44 186
-1 -2 0
-3 -4 0
28 -32 37 38 0
5 20 21 -35 0
-6 -7 0
3 4 14 -31 0
28 -35 -36 -37 0
-10 -11 0
-12 -13 0
19 -29 43 44 0
-15 -16 0
-17 -18 0
3 4 -14 31 0
-20 -21 0
-22 -23 0
10 11 41 42 0
5 -25 34 -35 0
-24 -25 0
-26 -27 0
-29 -30 0
17 18 -25 34 0
-32 -33 0
1 2 17 18 0
9 22 23 -43 0
-35 -36 0
-37 -38 0
-39 -40 0
-41 -42 0
1 2 41 42 0
-43 -44 0
20 21 32 33 0
-1 -17 0
-2 -18 0
3 4 -12 31 0
-2 -19 0
-1 -20 0
-2 -21 0
22 23 35 36 0
-1 -29 0
-2 -30 0
8 -17 24 25 0
-1 -39 0
-2 -40 0
15 16 43 44 0
-1 -41 0
-2 -42 0
1 2 20 21 0
-3 -14 0
-1 19 43 44 0
22 23 29 30 0
-3 -22 0
-4 -23 0
-3 -26 0
-4 -27 0
8 14 -24 -31 0
-5 17 18 34 0
-4 -31 0
22 23 41 42 0
-3 -37 0
-4 -38 0
1 2 29 30 0
-3 -43 0
-4 -44 0
8 -14 24 25 0
28 37 38 -41 0
-5 -21 0
20 21 37 38 0
9 -15 22 23 0
3 4 26 27 0
-5 -36 0
20 21 41 42 0
3 4 43 44 0
8 -14 17 18 0
5 20 21 -34 0
1 2 19 -29 0
-3 -4 14 31 0
9 -15 43 44 0
1 2 19 -43 0
28 -35 -36 -41 0
-6 -15 0
-7 -16 0
3 4 22 23 0
-6 -17 0
-7 -18 0
24 25 35 36 0
-6 -32 0
-7 -33 0
3 4 37 38 0
-6 -43 0
-7 -44 0
-4 8 14 -24 0
3 4 -8 14 0
19 29 30 -43 0
-4 -12 14 31 0
5 -18 -20 34 0
-8 -18 0
5 -20 -25 34 0
-8 -25 0
28 -32 -35 -36 0
-9 -16 0
12 13 39 40 0
28 -37 41 42 0
-9 -23 0
28 32 33 -37 0
28 32 33 -41 0
8 17 18 -24 0
12 13 26 27 0
28 -32 41 42 0
-9 -44 0
12 13 24 25 0
-10 -26 0
-11 -27 0
8 14 -17 -31 0
-10 -29 0
-11 -30 0
12 13 37 38 0
-10 -39 0
-11 -40 0
6 7 15 16 0
-10 -41 0
-11 -42 0
10 11 26 27 0
-12 -24 0
-13 -25 0
6 7 43 44 0
-12 -26 0
-13 -27 0
-18 24 25 34 0
-13 -31 0
-12 -37 0
-13 -38 0
1 2 39 40 0
-12 -39 0
-13 -40 0
15 16 35 36 0
-5 24 25 34 0
-1 19 29 30 0
17 18 32 33 0
-15 -35 0
-16 -36 0
5 -18 34 -35 0
-15 -39 0
-16 -40 0
6 7 17 18 0
-15 -43 0
-16 -44 0
10 11 39 40 0
-17 -32 0
-18 -33 0
-17 -34 0
9 15 16 -43 0
15 16 39 40 0
12 13 -14 31 0
-19 -30 0
-3 12 13 31 0
-19 -44 0
-4 8 14 -17 0
-20 -32 0
-21 -33 0
5 -20 35 36 0
-20 -37 0
-21 -38 0
9 -22 43 44 0
-20 -41 0
-21 -42 0
26 27 29 30 0
-22 -29 0
-23 -30 0
10 11 29 30 0
-22 -35 0
-23 -36 0
-3 -8 14 31 0
-22 -41 0
-23 -42 0
-8 -12 14 31 0
-24 -34 0
9 15 16 -22 0
5 -34 35 36 0
-24 -35 0
-25 -36 0
-26 -29 0
-27 -30 0
-28 -33 0
6 7 32 33 0
-28 -38 0
-28 -42 0
